(set-info :status unknown)
(declare-const symbol_25 (_ BitVec 32))
(declare-const symbol_27 (_ BitVec 32))
(declare-const symbol_33 (_ BitVec 32))
(declare-const symbol_10 (_ BitVec 32))
(declare-const symbol_4 (_ BitVec 32))
(declare-const symbol_29 (_ BitVec 32))
(declare-const symbol_23 (_ BitVec 32))
(declare-const symbol_0 (_ BitVec 32))
(declare-const symbol_16 (_ BitVec 32))
(declare-const symbol_3 (_ BitVec 32))
(declare-const symbol_14 (_ BitVec 32))
(declare-const symbol_6 (_ BitVec 32))
(declare-const symbol_1 (_ BitVec 32))
(declare-const symbol_22 (_ BitVec 32))
(declare-const symbol_18 (_ BitVec 32))
(declare-const symbol_31 (_ BitVec 32))
(declare-const symbol_20 (_ BitVec 32))
(declare-const symbol_12 (_ BitVec 32))
(declare-const symbol_8 (_ BitVec 32))
(assert (bvsge symbol_33 (_ bv0 32)))
(assert (not (bvsge symbol_31 (_ bv0 32))))
(assert (not (bvsge symbol_29 (_ bv0 32))))
(assert (not (bvsge symbol_27 (_ bv0 32))))
(assert (not (bvsge symbol_25 (_ bv0 32))))
(assert (not (bvsge symbol_23 (_ bv0 32))))
(assert (not (bvsge symbol_22 (_ bv0 32))))
(assert (not (bvsge symbol_20 (_ bv0 32))))
(assert (not (bvsge symbol_18 (_ bv0 32))))
(assert (not (bvsge symbol_16 (_ bv0 32))))
(assert (not (bvsge symbol_14 (_ bv0 32))))
(assert (not (bvsge symbol_12 (_ bv0 32))))
(assert (not (bvsge symbol_10 (_ bv0 32))))
(assert (not (bvsge symbol_8 (_ bv0 32))))
(assert (not (bvsge symbol_6 (_ bv0 32))))
(assert (not (bvsge symbol_4 (_ bv0 32))))
(assert (not (bvsge symbol_3 (_ bv0 32))))
(assert (not (bvsge symbol_1 (_ bv0 32))))
(assert (not (bvsge symbol_0 (_ bv0 32))))
(check-sat)